NAME : random_2
COMMENT : 30 random nodes
TYPE : TSP
DIMENSION : 30
EDGE_WEIGHT_TYPE : EUC_2D
NODE_COORD_SECTION
1 86 948
2 580 235
3 183 860
4 140 155
5 5 684
6 291 657
7 548 290
8 666 308
9 419 58
10 20 71
11 511 487
12 585 126
13 689 988
14 444 783
15 345 689
16 662 949
17 657 445
18 347 800
19 999 703
20 276 733
21 146 243
22 30 668
23 568 139
24 717 56
25 726 817
26 366 178
27 783 514
28 931 155
29 724 776
30 505 546
EOF